c 
c U(n,d) graph
c graph gen seed     : 8084
c number of vertices : 80
c max number of edges: 3160
c Euclidean distance : 0.400000
c data structure     : sparse
c
c           Graph Stats
c number of vertices  : 80
c nonisolated vertices: 80
c number of edges     : 1144
c edge density        : 0.362025
c max degree          : 45
c avg degree          : 28.60
c min degree          : 4
p col 80 1144
e 1 79
e 1 78
e 1 72
e 1 69
e 1 68
e 1 66
e 1 64
e 1 63
e 1 60
e 1 59
e 1 57
e 1 51
e 1 50
e 1 49
e 1 47
e 1 43
e 1 42
e 1 40
e 1 39
e 1 36
e 1 35
e 1 33
e 1 32
e 1 31
e 1 30
e 1 29
e 1 26
e 1 25
e 1 23
e 1 21
e 1 19
e 1 15
e 1 13
e 1 11
e 1 10
e 1 9
e 1 7
e 1 4
e 1 3
e 2 77
e 2 76
e 2 74
e 2 72
e 2 71
e 2 69
e 2 68
e 2 65
e 2 61
e 2 57
e 2 56
e 2 54
e 2 50
e 2 45
e 2 44
e 2 38
e 2 27
e 2 20
e 2 18
e 2 17
e 2 12
e 2 5
e 3 80
e 3 79
e 3 75
e 3 74
e 3 72
e 3 69
e 3 68
e 3 67
e 3 65
e 3 64
e 3 62
e 3 61
e 3 60
e 3 59
e 3 58
e 3 57
e 3 55
e 3 53
e 3 50
e 3 48
e 3 47
e 3 46
e 3 45
e 3 44
e 3 42
e 3 41
e 3 39
e 3 38
e 3 36
e 3 34
e 3 33
e 3 29
e 3 22
e 3 20
e 3 17
e 3 15
e 3 14
e 3 7
e 3 4
e 4 75
e 4 67
e 4 66
e 4 64
e 4 63
e 4 60
e 4 58
e 4 55
e 4 52
e 4 49
e 4 48
e 4 47
e 4 42
e 4 40
e 4 39
e 4 33
e 4 32
e 4 29
e 4 26
e 4 21
e 4 15
e 4 14
e 4 13
e 4 10
e 4 8
e 4 7
e 5 77
e 5 38
e 5 27
e 6 79
e 6 78
e 6 76
e 6 73
e 6 72
e 6 71
e 6 70
e 6 69
e 6 68
e 6 59
e 6 56
e 6 51
e 6 50
e 6 43
e 6 36
e 6 35
e 6 31
e 6 25
e 6 24
e 6 23
e 6 19
e 6 18
e 6 16
e 6 12
e 6 11
e 6 9
e 7 80
e 7 79
e 7 75
e 7 74
e 7 72
e 7 69
e 7 68
e 7 67
e 7 65
e 7 64
e 7 62
e 7 61
e 7 60
e 7 59
e 7 58
e 7 57
e 7 55
e 7 53
e 7 49
e 7 48
e 7 47
e 7 46
e 7 45
e 7 44
e 7 42
e 7 41
e 7 39
e 7 36
e 7 34
e 7 33
e 7 29
e 7 28
e 7 22
e 7 20
e 7 15
e 7 14
e 7 13
e 8 80
e 8 75
e 8 67
e 8 58
e 8 55
e 8 53
e 8 52
e 8 48
e 8 41
e 8 34
e 8 29
e 8 28
e 8 22
e 8 15
e 8 14
e 9 79
e 9 78
e 9 73
e 9 70
e 9 63
e 9 59
e 9 51
e 9 47
e 9 43
e 9 36
e 9 35
e 9 33
e 9 32
e 9 31
e 9 30
e 9 25
e 9 24
e 9 23
e 9 19
e 9 13
e 9 11
e 10 66
e 10 63
e 10 60
e 10 51
e 10 49
e 10 47
e 10 40
e 10 37
e 10 33
e 10 32
e 10 30
e 10 26
e 10 21
e 10 19
e 10 13
e 10 11
e 11 79
e 11 78
e 11 73
e 11 70
e 11 63
e 11 60
e 11 59
e 11 51
e 11 47
e 11 43
e 11 40
e 11 37
e 11 36
e 11 35
e 11 33
e 11 32
e 11 31
e 11 30
e 11 26
e 11 25
e 11 23
e 11 19
e 11 13
e 12 79
e 12 78
e 12 76
e 12 74
e 12 73
e 12 72
e 12 71
e 12 69
e 12 68
e 12 65
e 12 61
e 12 59
e 12 57
e 12 56
e 12 54
e 12 50
e 12 45
e 12 36
e 12 27
e 12 25
e 12 24
e 12 23
e 12 20
e 12 18
e 12 17
e 12 16
e 13 79
e 13 78
e 13 69
e 13 66
e 13 63
e 13 60
e 13 59
e 13 51
e 13 49
e 13 47
e 13 43
e 13 42
e 13 40
e 13 39
e 13 37
e 13 36
e 13 35
e 13 33
e 13 32
e 13 31
e 13 30
e 13 29
e 13 26
e 13 25
e 13 23
e 13 21
e 13 19
e 14 80
e 14 75
e 14 74
e 14 67
e 14 64
e 14 62
e 14 60
e 14 58
e 14 55
e 14 53
e 14 52
e 14 48
e 14 46
e 14 44
e 14 42
e 14 41
e 14 39
e 14 34
e 14 29
e 14 28
e 14 22
e 14 15
e 15 80
e 15 75
e 15 74
e 15 72
e 15 69
e 15 68
e 15 67
e 15 65
e 15 64
e 15 62
e 15 61
e 15 60
e 15 58
e 15 57
e 15 55
e 15 53
e 15 52
e 15 49
e 15 48
e 15 47
e 15 46
e 15 44
e 15 42
e 15 41
e 15 39
e 15 36
e 15 34
e 15 33
e 15 29
e 15 28
e 15 22
e 15 20
e 16 79
e 16 78
e 16 76
e 16 73
e 16 72
e 16 71
e 16 70
e 16 69
e 16 68
e 16 59
e 16 56
e 16 54
e 16 50
e 16 45
e 16 43
e 16 36
e 16 27
e 16 25
e 16 24
e 16 23
e 16 18
e 16 17
e 17 79
e 17 78
e 17 76
e 17 74
e 17 73
e 17 72
e 17 71
e 17 69
e 17 68
e 17 65
e 17 64
e 17 61
e 17 59
e 17 57
e 17 56
e 17 54
e 17 50
e 17 45
e 17 44
e 17 38
e 17 36
e 17 27
e 17 24
e 17 20
e 17 18
e 18 79
e 18 78
e 18 76
e 18 73
e 18 72
e 18 71
e 18 70
e 18 69
e 18 68
e 18 65
e 18 61
e 18 59
e 18 57
e 18 56
e 18 54
e 18 50
e 18 45
e 18 36
e 18 27
e 18 25
e 18 24
e 18 23
e 19 79
e 19 78
e 19 73
e 19 70
e 19 69
e 19 66
e 19 63
e 19 60
e 19 59
e 19 51
e 19 47
e 19 43
e 19 40
e 19 37
e 19 36
e 19 35
e 19 33
e 19 32
e 19 31
e 19 30
e 19 26
e 19 25
e 19 23
e 20 80
e 20 77
e 20 74
e 20 72
e 20 69
e 20 68
e 20 65
e 20 64
e 20 62
e 20 61
e 20 58
e 20 57
e 20 54
e 20 53
e 20 46
e 20 45
e 20 44
e 20 42
e 20 41
e 20 38
e 20 34
e 20 27
e 20 22
e 21 66
e 21 63
e 21 60
e 21 49
e 21 47
e 21 40
e 21 39
e 21 37
e 21 33
e 21 32
e 21 30
e 21 29
e 21 26
e 22 80
e 22 77
e 22 75
e 22 74
e 22 67
e 22 64
e 22 62
e 22 58
e 22 55
e 22 53
e 22 52
e 22 48
e 22 46
e 22 44
e 22 42
e 22 41
e 22 34
e 22 28
e 23 79
e 23 78
e 23 76
e 23 73
e 23 72
e 23 71
e 23 70
e 23 69
e 23 68
e 23 59
e 23 56
e 23 54
e 23 51
e 23 50
e 23 47
e 23 43
e 23 36
e 23 35
e 23 31
e 23 25
e 23 24
e 24 79
e 24 78
e 24 76
e 24 73
e 24 72
e 24 71
e 24 70
e 24 69
e 24 68
e 24 59
e 24 56
e 24 54
e 24 50
e 24 43
e 24 36
e 24 35
e 24 31
e 24 25
e 25 79
e 25 78
e 25 76
e 25 73
e 25 72
e 25 70
e 25 69
e 25 68
e 25 59
e 25 51
e 25 50
e 25 47
e 25 43
e 25 36
e 25 35
e 25 31
e 26 66
e 26 63
e 26 60
e 26 51
e 26 49
e 26 47
e 26 40
e 26 39
e 26 37
e 26 33
e 26 32
e 26 30
e 26 29
e 27 76
e 27 73
e 27 72
e 27 71
e 27 69
e 27 68
e 27 65
e 27 61
e 27 57
e 27 56
e 27 54
e 27 50
e 27 45
e 27 44
e 27 38
e 28 80
e 28 75
e 28 67
e 28 62
e 28 58
e 28 55
e 28 53
e 28 52
e 28 48
e 28 46
e 28 42
e 28 41
e 28 34
e 29 80
e 29 75
e 29 74
e 29 67
e 29 66
e 29 64
e 29 63
e 29 60
e 29 58
e 29 57
e 29 55
e 29 53
e 29 52
e 29 49
e 29 48
e 29 47
e 29 46
e 29 42
e 29 40
e 29 39
e 29 36
e 29 34
e 29 33
e 30 66
e 30 63
e 30 60
e 30 51
e 30 49
e 30 47
e 30 40
e 30 37
e 30 35
e 30 33
e 30 32
e 30 31
e 31 79
e 31 78
e 31 73
e 31 70
e 31 63
e 31 59
e 31 51
e 31 47
e 31 43
e 31 36
e 31 35
e 31 33
e 31 32
e 32 66
e 32 63
e 32 60
e 32 51
e 32 49
e 32 47
e 32 40
e 32 37
e 32 35
e 32 33
e 33 79
e 33 78
e 33 75
e 33 74
e 33 72
e 33 69
e 33 68
e 33 66
e 33 64
e 33 63
e 33 60
e 33 59
e 33 58
e 33 57
e 33 51
e 33 49
e 33 47
e 33 42
e 33 40
e 33 39
e 33 36
e 33 35
e 34 80
e 34 77
e 34 75
e 34 74
e 34 67
e 34 64
e 34 62
e 34 61
e 34 58
e 34 57
e 34 55
e 34 53
e 34 52
e 34 48
e 34 46
e 34 44
e 34 42
e 34 41
e 34 39
e 34 38
e 35 79
e 35 78
e 35 76
e 35 73
e 35 70
e 35 69
e 35 63
e 35 60
e 35 59
e 35 51
e 35 47
e 35 43
e 35 40
e 35 36
e 36 79
e 36 78
e 36 76
e 36 74
e 36 73
e 36 72
e 36 70
e 36 69
e 36 68
e 36 65
e 36 64
e 36 63
e 36 61
e 36 60
e 36 59
e 36 57
e 36 56
e 36 54
e 36 51
e 36 50
e 36 47
e 36 45
e 36 43
e 36 42
e 36 39
e 37 66
e 37 63
e 37 51
e 37 49
e 37 40
e 38 80
e 38 77
e 38 74
e 38 65
e 38 64
e 38 62
e 38 61
e 38 58
e 38 57
e 38 46
e 38 45
e 38 44
e 38 41
e 39 80
e 39 79
e 39 75
e 39 74
e 39 72
e 39 69
e 39 68
e 39 67
e 39 66
e 39 64
e 39 63
e 39 61
e 39 60
e 39 59
e 39 58
e 39 57
e 39 55
e 39 53
e 39 49
e 39 48
e 39 47
e 39 46
e 39 44
e 39 42
e 39 40
e 40 66
e 40 63
e 40 60
e 40 51
e 40 49
e 40 47
e 41 80
e 41 77
e 41 75
e 41 74
e 41 67
e 41 64
e 41 62
e 41 58
e 41 55
e 41 53
e 41 52
e 41 48
e 41 46
e 41 44
e 41 42
e 42 80
e 42 79
e 42 75
e 42 74
e 42 72
e 42 69
e 42 68
e 42 67
e 42 65
e 42 64
e 42 62
e 42 61
e 42 60
e 42 59
e 42 58
e 42 57
e 42 55
e 42 53
e 42 49
e 42 48
e 42 47
e 42 46
e 42 44
e 43 79
e 43 78
e 43 76
e 43 73
e 43 70
e 43 59
e 43 51
e 44 80
e 44 77
e 44 75
e 44 74
e 44 72
e 44 69
e 44 68
e 44 67
e 44 65
e 44 64
e 44 62
e 44 61
e 44 58
e 44 57
e 44 55
e 44 53
e 44 48
e 44 46
e 44 45
e 45 79
e 45 78
e 45 76
e 45 74
e 45 73
e 45 72
e 45 71
e 45 69
e 45 68
e 45 65
e 45 64
e 45 61
e 45 59
e 45 57
e 45 56
e 45 54
e 45 50
e 45 46
e 46 80
e 46 77
e 46 75
e 46 74
e 46 72
e 46 69
e 46 68
e 46 67
e 46 65
e 46 64
e 46 62
e 46 61
e 46 60
e 46 58
e 46 57
e 46 55
e 46 53
e 46 48
e 47 79
e 47 78
e 47 76
e 47 74
e 47 73
e 47 72
e 47 69
e 47 68
e 47 66
e 47 64
e 47 63
e 47 61
e 47 60
e 47 59
e 47 57
e 47 51
e 47 50
e 47 49
e 48 80
e 48 75
e 48 74
e 48 67
e 48 64
e 48 62
e 48 58
e 48 55
e 48 53
e 48 52
e 49 75
e 49 66
e 49 63
e 49 60
e 50 79
e 50 78
e 50 76
e 50 74
e 50 73
e 50 72
e 50 71
e 50 70
e 50 69
e 50 68
e 50 65
e 50 64
e 50 61
e 50 59
e 50 57
e 50 56
e 50 54
e 51 79
e 51 70
e 51 66
e 51 63
e 51 59
e 52 80
e 52 75
e 52 67
e 52 62
e 52 58
e 52 55
e 52 53
e 53 80
e 53 77
e 53 75
e 53 74
e 53 67
e 53 64
e 53 62
e 53 58
e 53 55
e 54 79
e 54 78
e 54 76
e 54 74
e 54 73
e 54 72
e 54 71
e 54 69
e 54 68
e 54 65
e 54 61
e 54 59
e 54 57
e 54 56
e 55 80
e 55 75
e 55 74
e 55 67
e 55 64
e 55 62
e 55 60
e 55 58
e 56 79
e 56 78
e 56 76
e 56 73
e 56 72
e 56 71
e 56 69
e 56 68
e 56 65
e 56 61
e 56 59
e 56 57
e 57 80
e 57 79
e 57 78
e 57 76
e 57 74
e 57 73
e 57 72
e 57 69
e 57 68
e 57 65
e 57 64
e 57 62
e 57 61
e 57 60
e 57 59
e 57 58
e 58 80
e 58 77
e 58 75
e 58 74
e 58 69
e 58 67
e 58 65
e 58 64
e 58 62
e 58 61
e 58 60
e 59 79
e 59 78
e 59 76
e 59 74
e 59 73
e 59 72
e 59 70
e 59 69
e 59 68
e 59 65
e 59 64
e 59 61
e 59 60
e 60 79
e 60 75
e 60 74
e 60 72
e 60 69
e 60 68
e 60 66
e 60 64
e 60 63
e 60 61
e 61 80
e 61 79
e 61 78
e 61 77
e 61 76
e 61 74
e 61 73
e 61 72
e 61 71
e 61 69
e 61 68
e 61 65
e 61 64
e 61 62
e 62 80
e 62 77
e 62 75
e 62 74
e 62 67
e 62 65
e 62 64
e 63 66
e 64 80
e 64 79
e 64 75
e 64 74
e 64 72
e 64 69
e 64 68
e 64 67
e 64 65
e 65 80
e 65 79
e 65 78
e 65 77
e 65 76
e 65 74
e 65 73
e 65 72
e 65 71
e 65 69
e 65 68
e 67 80
e 67 75
e 67 74
e 68 79
e 68 78
e 68 76
e 68 74
e 68 73
e 68 72
e 68 71
e 68 69
e 69 79
e 69 78
e 69 76
e 69 74
e 69 73
e 69 72
e 69 71
e 70 79
e 70 78
e 70 76
e 70 73
e 71 79
e 71 78
e 71 76
e 71 73
e 71 72
e 72 79
e 72 78
e 72 76
e 72 74
e 72 73
e 73 79
e 73 78
e 73 76
e 74 80
e 74 79
e 74 77
e 74 75
e 75 80
e 76 79
e 76 78
e 77 80
e 78 79
